; Options: -q --produce-models --incremental --print-success --lang smt2.6 --arrays-exp
(set-logic ALL)

(declare-fun start!2445 () Bool)

(assert start!2445)

(declare-datatypes ((Unit!1362 0))(
  ( (Unit!1363) )
))
(declare-datatypes ((array!880 0))(
  ( (array!881 (arr!381 (Array (_ BitVec 32) (_ BitVec 32))) (size!381 (_ BitVec 32))) )
))
(declare-datatypes ((tuple4!244 0))(
  ( (tuple4!245 (_1!296 Unit!1362) (_2!296 array!880) (_3!228 (_ BitVec 32)) (_4!122 (_ FloatingPoint 11 53))) )
))
(declare-fun lt!6314 () tuple4!244)

(declare-fun lt!6319 () (_ BitVec 32))

(declare-fun b!12717 () Bool)

(declare-datatypes ((tuple4!246 0))(
  ( (tuple4!247 (_1!297 Unit!1362) (_2!297 (_ BitVec 32)) (_3!229 array!880) (_4!123 (_ BitVec 32))) )
))
(declare-fun e!6966 () tuple4!246)

(declare-fun lt!6312 () (_ BitVec 32))

(declare-fun Unit!1364 () Unit!1362)

(assert (=> b!12717 (= e!6966 (tuple4!247 Unit!1364 lt!6319 (_2!296 lt!6314) lt!6312))))

(declare-fun b!12718 () Bool)

(declare-fun res!10125 () Bool)

(declare-fun e!6963 () Bool)

(assert (=> b!12718 (=> (not res!10125) (not e!6963))))

(declare-datatypes ((array!882 0))(
  ( (array!883 (arr!382 (Array (_ BitVec 32) (_ FloatingPoint 11 53))) (size!382 (_ BitVec 32))) )
))
(declare-fun q!93 () array!882)

(declare-fun qInv!0 (array!882) Bool)

(assert (=> b!12718 (= res!10125 (qInv!0 q!93))))

(declare-fun lt!6320 () array!880)

(declare-fun b!12719 () Bool)

(declare-fun e!6964 () tuple4!244)

(declare-fun lt!6311 () (_ FloatingPoint 11 53))

(declare-fun jz!59 () (_ BitVec 32))

(declare-fun Unit!1365 () Unit!1362)

(assert (=> b!12719 (= e!6964 (tuple4!245 Unit!1365 lt!6320 jz!59 lt!6311))))

(declare-fun b!12720 () Bool)

(declare-fun res!10123 () Bool)

(declare-fun e!6962 () Bool)

(assert (=> b!12720 (=> (not res!10123) (not e!6962))))

(declare-fun iq!194 () array!880)

(declare-fun iqInv!0 (array!880) Bool)

(assert (=> b!12720 (= res!10123 (iqInv!0 iq!194))))

(declare-fun b!12721 () Bool)

(declare-datatypes ((tuple3!212 0))(
  ( (tuple3!213 (_1!298 Unit!1362) (_2!298 array!880) (_3!230 (_ BitVec 32))) )
))
(declare-fun e!6960 () tuple3!212)

(declare-fun Unit!1366 () Unit!1362)

(assert (=> b!12721 (= e!6960 (tuple3!213 Unit!1366 (_2!296 lt!6314) lt!6312))))

(declare-fun b!12722 () Bool)

(declare-fun lt!6317 () (_ BitVec 32))

(assert (=> b!12722 (= e!6962 (or (bvslt lt!6317 #b00000000000000000000000000000000) (bvsge lt!6317 (size!381 iq!194))))))

(assert (=> b!12722 (= lt!6317 (bvsub jz!59 #b00000000000000000000000000000001))))

(declare-fun res!10124 () Bool)

(assert (=> start!2445 (=> (not res!10124) (not e!6963))))

(assert (=> start!2445 (= res!10124 (and (bvsle #b00000000000000000000000000000010 jz!59) (bvslt jz!59 #b00000000000000000000000000010011)))))

(assert (=> start!2445 e!6963))

(assert (=> start!2445 true))

(declare-fun array_inv!330 (array!882) Bool)

(assert (=> start!2445 (array_inv!330 q!93)))

(declare-fun array_inv!331 (array!880) Bool)

(assert (=> start!2445 (array_inv!331 iq!194)))

(declare-fun b!12723 () Bool)

(declare-fun computeModuloWhile!0 ((_ BitVec 32) array!882 array!880 (_ BitVec 32) (_ FloatingPoint 11 53)) tuple4!244)

(assert (=> b!12723 (= e!6964 (computeModuloWhile!0 jz!59 q!93 lt!6320 jz!59 lt!6311))))

(declare-fun b!12724 () Bool)

(declare-fun computeModuloWhile!3 ((_ BitVec 32) array!882 (_ BitVec 32) array!880 (_ BitVec 32)) tuple4!246)

(assert (=> b!12724 (= e!6966 (computeModuloWhile!3 jz!59 q!93 lt!6319 (_2!296 lt!6314) lt!6312))))

(declare-fun lt!6315 () tuple4!246)

(declare-fun lt!6310 () (_ BitVec 32))

(declare-fun b!12725 () Bool)

(declare-fun Unit!1367 () Unit!1362)

(assert (=> b!12725 (= e!6960 (tuple3!213 Unit!1367 (array!881 (store (arr!381 (_3!229 lt!6315)) (bvsub jz!59 #b00000000000000000000000000000001) (ite (= (_4!123 lt!6315) #b00000000000000000000000000000000) (bvsub #b00000001000000000000000000000000 lt!6310) (bvsub #b00000000111111111111111111111111 lt!6310))) (size!381 (_3!229 lt!6315))) (_4!123 lt!6315)))))

(assert (=> b!12725 (= lt!6319 #b00000000000000000000000000000000)))

(declare-fun c!1511 () Bool)

(assert (=> b!12725 (= c!1511 (bvslt lt!6319 (bvsub jz!59 #b00000000000000000000000000000001)))))

(assert (=> b!12725 (= lt!6315 e!6966)))

(assert (=> b!12725 (= lt!6310 (select (arr!381 (_3!229 lt!6315)) (bvsub jz!59 #b00000000000000000000000000000001)))))

(declare-fun b!12726 () Bool)

(declare-fun e!6959 () Bool)

(assert (=> b!12726 (= e!6963 e!6959)))

(declare-fun res!10121 () Bool)

(assert (=> b!12726 (=> (not res!10121) (not e!6959))))

(declare-fun lt!6318 () (_ FloatingPoint 11 53))

(assert (=> b!12726 (= res!10121 (and (fp.leq (fp #b0 #b00000000000 #b0000000000000000000000000000000000000000000000000000) lt!6318) (fp.lt lt!6318 (fp #b0 #b10000000010 #b0000000000000000000000000000000000000000000000000000))))))

(assert (=> b!12726 (= lt!6318 (fp.sub roundNearestTiesToEven (_4!122 lt!6314) (fp.mul roundNearestTiesToEven (fp #b0 #b10000000010 #b0000000000000000000000000000000000000000000000000000) ((_ to_fp 11 53) roundNearestTiesToEven (ite (fp.isNaN (fp.mul roundNearestTiesToEven (_4!122 lt!6314) (fp #b0 #b01111111100 #b0000000000000000000000000000000000000000000000000000))) #b0000000000000000000000000000000000000000000000000000000000000000 (ite (fp.gt (fp.mul roundNearestTiesToEven (_4!122 lt!6314) (fp #b0 #b01111111100 #b0000000000000000000000000000000000000000000000000000)) ((_ to_fp 11 53) roundTowardZero #b0111111111111111111111111111111111111111111111111111111111111111)) #b0111111111111111111111111111111111111111111111111111111111111111 (ite (fp.lt (fp.mul roundNearestTiesToEven (_4!122 lt!6314) (fp #b0 #b01111111100 #b0000000000000000000000000000000000000000000000000000)) ((_ to_fp 11 53) roundTowardZero #b1000000000000000000000000000000000000000000000000000000000000000)) #b1000000000000000000000000000000000000000000000000000000000000000 ((_ fp.to_sbv 64) roundTowardZero (fp.mul roundNearestTiesToEven (_4!122 lt!6314) (fp #b0 #b01111111100 #b0000000000000000000000000000000000000000000000000000))))))))))))

(assert (=> b!12726 (= lt!6314 e!6964)))

(declare-fun c!1510 () Bool)

(assert (=> b!12726 (= c!1510 (bvsgt jz!59 #b00000000000000000000000000000000))))

(assert (=> b!12726 (= lt!6311 (select (arr!382 q!93) jz!59))))

(assert (=> b!12726 (= lt!6320 (array!881 ((as const (Array (_ BitVec 32) (_ BitVec 32))) #b00000000000000000000000000000000) #b00000000000000000000000000010100))))

(declare-fun b!12727 () Bool)

(assert (=> b!12727 (= e!6959 e!6962)))

(declare-fun res!10122 () Bool)

(assert (=> b!12727 (=> (not res!10122) (not e!6962))))

(declare-fun i!271 () (_ BitVec 32))

(declare-fun lt!6313 () tuple3!212)

(declare-fun lt!6316 () Bool)

(assert (=> b!12727 (= res!10122 (and (bvsle #b00000000000000000000000000000000 (select (arr!381 (_2!298 lt!6313)) (bvsub jz!59 #b00000000000000000000000000000001))) (bvsle (select (arr!381 (_2!298 lt!6313)) (bvsub jz!59 #b00000000000000000000000000000001)) #b00000000100000000000000000000000) (or (not lt!6316) (not (= (_3!230 lt!6313) #b00000000000000000000000000000000)) (not (= (select (arr!381 (_2!298 lt!6313)) (bvsub jz!59 #b00000000000000000000000000000001)) #b00000000100000000000000000000000))) (bvsle (select (arr!381 (_2!298 lt!6313)) (bvsub jz!59 #b00000000000000000000000000000001)) #b00000000011111111111111111111111) (bvsle #b00000000000000000000000000000000 i!271) (bvsle i!271 jz!59)))))

(assert (=> b!12727 (= lt!6313 e!6960)))

(declare-fun c!1509 () Bool)

(assert (=> b!12727 (= c!1509 lt!6316)))

(assert (=> b!12727 (= lt!6312 #b00000000000000000000000000000000)))

(assert (=> b!12727 (= lt!6316 (bvsge (select (arr!381 (_2!296 lt!6314)) (bvsub jz!59 #b00000000000000000000000000000001)) #b00000000100000000000000000000000))))

(assert (= (and start!2445 res!10124) b!12718))

(assert (= (and b!12718 res!10125) b!12726))

(assert (= (and b!12726 c!1510) b!12723))

(assert (= (and b!12726 (not c!1510)) b!12719))

(assert (= (and b!12726 res!10121) b!12727))

(assert (= (and b!12727 c!1509) b!12725))

(assert (= (and b!12727 (not c!1509)) b!12721))

(assert (= (and b!12725 c!1511) b!12724))

(assert (= (and b!12725 (not c!1511)) b!12717))

(assert (= (and b!12727 res!10122) b!12720))

(assert (= (and b!12720 res!10123) b!12722))

(declare-fun m!20801 () Bool)

(assert (=> b!12724 m!20801))

(declare-fun m!20803 () Bool)

(assert (=> b!12726 m!20803))

(declare-fun m!20805 () Bool)

(assert (=> b!12727 m!20805))

(declare-fun m!20807 () Bool)

(assert (=> b!12727 m!20807))

(declare-fun m!20809 () Bool)

(assert (=> b!12718 m!20809))

(declare-fun m!20811 () Bool)

(assert (=> start!2445 m!20811))

(declare-fun m!20813 () Bool)

(assert (=> start!2445 m!20813))

(declare-fun m!20815 () Bool)

(assert (=> b!12725 m!20815))

(declare-fun m!20817 () Bool)

(assert (=> b!12725 m!20817))

(declare-fun m!20819 () Bool)

(assert (=> b!12723 m!20819))

(declare-fun m!20821 () Bool)

(assert (=> b!12720 m!20821))

(push 1)

(assert (not start!2445))

(assert (not b!12723))

(assert (not b!12724))

(assert (not b!12720))

(assert (not b!12718))

(check-sat)

(pop 1)

(push 1)

(check-sat)

(get-model)

(pop 1)

(declare-fun b!12740 () Bool)

(declare-fun res!10137 () Bool)

(declare-fun e!6974 () Bool)

(assert (=> b!12740 (=> (not res!10137) (not e!6974))))

(assert (=> b!12740 (= res!10137 (iqInv!0 lt!6320))))

(declare-fun b!12741 () Bool)

(declare-fun res!10135 () Bool)

(declare-fun e!6973 () Bool)

(assert (=> b!12741 (=> (not res!10135) (not e!6973))))

(declare-fun lt!6334 () tuple4!244)

(assert (=> b!12741 (= res!10135 (iqInv!0 (_2!296 lt!6334)))))

(declare-fun b!12742 () Bool)

(assert (=> b!12742 (= e!6974 (bvsgt jz!59 #b00000000000000000000000000000000))))

(declare-fun d!6781 () Bool)

(assert (=> d!6781 e!6973))

(declare-fun res!10136 () Bool)

(assert (=> d!6781 (=> (not res!10136) (not e!6973))))

(assert (=> d!6781 (= res!10136 (and true true (bvsle #b00000000000000000000000000000000 (_3!228 lt!6334)) (bvsle (_3!228 lt!6334) jz!59) (fp.leq (fp #b0 #b00000000000 #b0000000000000000000000000000000000000000000000000000) (_4!122 lt!6334)) (fp.leq (_4!122 lt!6334) (fp #b0 #b10000110001 #b0100000000000000000000010011111111111111111111111100))))))

(declare-fun e!6975 () tuple4!244)

(assert (=> d!6781 (= lt!6334 e!6975)))

(declare-fun c!1514 () Bool)

(declare-fun lt!6335 () (_ BitVec 32))

(assert (=> d!6781 (= c!1514 (bvsgt lt!6335 #b00000000000000000000000000000000))))

(assert (=> d!6781 (= lt!6335 (bvsub jz!59 #b00000000000000000000000000000001))))

(declare-fun lt!6332 () (_ FloatingPoint 11 53))

(declare-fun lt!6331 () (_ FloatingPoint 11 53))

(assert (=> d!6781 (= lt!6331 (fp.add roundNearestTiesToEven (select (arr!382 q!93) (bvsub jz!59 #b00000000000000000000000000000001)) lt!6332))))

(declare-fun lt!6333 () array!880)

(assert (=> d!6781 (= lt!6333 (array!881 (store (arr!381 lt!6320) (bvsub jz!59 jz!59) (ite (fp.isNaN (fp.sub roundNearestTiesToEven lt!6311 (fp.mul roundNearestTiesToEven (fp #b0 #b10000010111 #b0000000000000000000000000000000000000000000000000000) lt!6332))) #b00000000000000000000000000000000 (ite (fp.gt (fp.sub roundNearestTiesToEven lt!6311 (fp.mul roundNearestTiesToEven (fp #b0 #b10000010111 #b0000000000000000000000000000000000000000000000000000) lt!6332)) ((_ to_fp 11 53) roundTowardZero #b01111111111111111111111111111111)) #b01111111111111111111111111111111 (ite (fp.lt (fp.sub roundNearestTiesToEven lt!6311 (fp.mul roundNearestTiesToEven (fp #b0 #b10000010111 #b0000000000000000000000000000000000000000000000000000) lt!6332)) ((_ to_fp 11 53) roundTowardZero #b10000000000000000000000000000000)) #b10000000000000000000000000000000 ((_ fp.to_sbv 32) roundTowardZero (fp.sub roundNearestTiesToEven lt!6311 (fp.mul roundNearestTiesToEven (fp #b0 #b10000010111 #b0000000000000000000000000000000000000000000000000000) lt!6332))))))) (size!381 lt!6320)))))

(assert (=> d!6781 (= lt!6332 ((_ to_fp 11 53) roundNearestTiesToEven (ite (fp.isNaN (fp.mul roundNearestTiesToEven (fp #b0 #b01111100111 #b0000000000000000000000000000000000000000000000000000) lt!6311)) #b00000000000000000000000000000000 (ite (fp.gt (fp.mul roundNearestTiesToEven (fp #b0 #b01111100111 #b0000000000000000000000000000000000000000000000000000) lt!6311) ((_ to_fp 11 53) roundTowardZero #b01111111111111111111111111111111)) #b01111111111111111111111111111111 (ite (fp.lt (fp.mul roundNearestTiesToEven (fp #b0 #b01111100111 #b0000000000000000000000000000000000000000000000000000) lt!6311) ((_ to_fp 11 53) roundTowardZero #b10000000000000000000000000000000)) #b10000000000000000000000000000000 ((_ fp.to_sbv 32) roundTowardZero (fp.mul roundNearestTiesToEven (fp #b0 #b01111100111 #b0000000000000000000000000000000000000000000000000000) lt!6311)))))))))

(assert (=> d!6781 e!6974))

(declare-fun res!10134 () Bool)

(assert (=> d!6781 (=> (not res!10134) (not e!6974))))

(assert (=> d!6781 (= res!10134 (and (bvsle #b00000000000000000000000000000000 jz!59) (bvsle jz!59 jz!59) (fp.leq (fp #b0 #b00000000000 #b0000000000000000000000000000000000000000000000000000) lt!6311) (fp.leq lt!6311 (fp #b0 #b10000110001 #b0100000000000000000000010011111111111111111111111100))))))

(assert (=> d!6781 (= (computeModuloWhile!0 jz!59 q!93 lt!6320 jz!59 lt!6311) lt!6334)))

(declare-fun b!12743 () Bool)

(assert (=> b!12743 (= e!6975 (computeModuloWhile!0 jz!59 q!93 lt!6333 lt!6335 lt!6331))))

(declare-fun b!12744 () Bool)

(declare-fun Unit!1368 () Unit!1362)

(assert (=> b!12744 (= e!6975 (tuple4!245 Unit!1368 lt!6333 lt!6335 lt!6331))))

(declare-fun b!12745 () Bool)

(assert (=> b!12745 (= e!6973 (bvsle (_3!228 lt!6334) #b00000000000000000000000000000000))))

(assert (= (and d!6781 res!10134) b!12740))

(assert (= (and b!12740 res!10137) b!12742))

(assert (= (and d!6781 c!1514) b!12743))

(assert (= (and d!6781 (not c!1514)) b!12744))

(assert (= (and d!6781 res!10136) b!12741))

(assert (= (and b!12741 res!10135) b!12745))

(declare-fun m!20823 () Bool)

(assert (=> b!12740 m!20823))

(declare-fun m!20825 () Bool)

(assert (=> b!12741 m!20825))

(declare-fun m!20827 () Bool)

(assert (=> d!6781 m!20827))

(declare-fun m!20829 () Bool)

(assert (=> d!6781 m!20829))

(declare-fun m!20831 () Bool)

(assert (=> b!12743 m!20831))

(assert (=> b!12723 d!6781))

(declare-fun d!6783 () Bool)

(declare-fun res!10140 () Bool)

(declare-fun e!6978 () Bool)

(assert (=> d!6783 (=> (not res!10140) (not e!6978))))

(assert (=> d!6783 (= res!10140 (= (size!382 q!93) #b00000000000000000000000000010100))))

(assert (=> d!6783 (= (qInv!0 q!93) e!6978)))

(declare-fun b!12748 () Bool)

(declare-fun lambda!599 () Int)

(declare-fun all20!0 (array!882 Int) Bool)

(assert (=> b!12748 (= e!6978 (all20!0 q!93 lambda!599))))

(assert (= (and d!6783 res!10140) b!12748))

(declare-fun m!20833 () Bool)

(assert (=> b!12748 m!20833))

(assert (=> b!12718 d!6783))

(declare-fun lt!6356 () (_ BitVec 32))

(declare-fun b!12769 () Bool)

(declare-fun lt!6358 () (_ BitVec 32))

(declare-fun e!6988 () tuple4!246)

(declare-fun lt!6362 () array!880)

(assert (=> b!12769 (= e!6988 (computeModuloWhile!3 jz!59 q!93 lt!6356 lt!6362 lt!6358))))

(declare-fun b!12770 () Bool)

(declare-fun res!10154 () Bool)

(declare-fun e!6990 () Bool)

(assert (=> b!12770 (=> (not res!10154) (not e!6990))))

(declare-fun lt!6361 () tuple4!246)

(assert (=> b!12770 (= res!10154 (iqInv!0 (_3!229 lt!6361)))))

(declare-fun e!6987 () Bool)

(declare-fun b!12771 () Bool)

(assert (=> b!12771 (= e!6987 (and (bvsge (select (arr!381 (_2!296 lt!6314)) (bvsub jz!59 #b00000000000000000000000000000001)) #b00000000100000000000000000000000) (or (= lt!6312 #b00000000000000000000000000000000) (= lt!6312 #b00000000000000000000000000000001)) (bvslt lt!6319 (bvsub jz!59 #b00000000000000000000000000000001))))))

(declare-fun b!12772 () Bool)

(declare-fun res!10155 () Bool)

(assert (=> b!12772 (=> (not res!10155) (not e!6990))))

(assert (=> b!12772 (= res!10155 (or (= (_4!123 lt!6361) #b00000000000000000000000000000000) (= (_4!123 lt!6361) #b00000000000000000000000000000001)))))

(declare-fun b!12774 () Bool)

(declare-fun res!10153 () Bool)

(assert (=> b!12774 (=> (not res!10153) (not e!6990))))

(declare-fun lt!6359 () (_ BitVec 32))

(assert (=> b!12774 (= res!10153 (bvsge (select (arr!381 (_3!229 lt!6361)) lt!6359) #b00000000100000000000000000000000))))

(assert (=> b!12774 (and (bvsge lt!6359 #b00000000000000000000000000000000) (bvslt lt!6359 (size!381 (_3!229 lt!6361))))))

(assert (=> b!12774 (= lt!6359 (bvsub jz!59 #b00000000000000000000000000000001))))

(assert (=> b!12774 (or (= (bvand jz!59 #b10000000000000000000000000000000) #b00000000000000000000000000000000) (= (bvand jz!59 #b10000000000000000000000000000000) (bvand (bvsub jz!59 #b00000000000000000000000000000001) #b10000000000000000000000000000000)))))

(declare-fun b!12775 () Bool)

(declare-fun res!10156 () Bool)

(assert (=> b!12775 (=> (not res!10156) (not e!6987))))

(assert (=> b!12775 (= res!10156 (iqInv!0 (_2!296 lt!6314)))))

(declare-fun e!6989 () tuple4!244)

(declare-fun b!12776 () Bool)

(declare-fun lt!6354 () (_ FloatingPoint 11 53))

(declare-fun lt!6357 () array!880)

(declare-fun Unit!1369 () Unit!1362)

(assert (=> b!12776 (= e!6989 (tuple4!245 Unit!1369 lt!6357 jz!59 lt!6354))))

(declare-fun d!6785 () Bool)

(assert (=> d!6785 e!6990))

(declare-fun res!10157 () Bool)

(assert (=> d!6785 (=> (not res!10157) (not e!6990))))

(assert (=> d!6785 (= res!10157 (and (or (bvsgt #b00000000000000000000000000000000 (_2!297 lt!6361)) (= (bvand jz!59 #b10000000000000000000000000000000) #b00000000000000000000000000000000) (= (bvand jz!59 #b10000000000000000000000000000000) (bvand (bvsub jz!59 #b00000000000000000000000000000001) #b10000000000000000000000000000000))) (bvsle #b00000000000000000000000000000000 (_2!297 lt!6361)) (bvsle (_2!297 lt!6361) (bvsub jz!59 #b00000000000000000000000000000001))))))

(assert (=> d!6785 (= lt!6361 e!6988)))

(declare-fun c!1520 () Bool)

(assert (=> d!6785 (= c!1520 (bvslt lt!6356 (bvsub jz!59 #b00000000000000000000000000000001)))))

(assert (=> d!6785 (= lt!6356 (bvadd lt!6319 #b00000000000000000000000000000001))))

(declare-fun lt!6360 () (_ BitVec 32))

(assert (=> d!6785 (= lt!6358 (ite (and (= lt!6312 #b00000000000000000000000000000000) (not (= lt!6360 #b00000000000000000000000000000000))) #b00000000000000000000000000000001 lt!6312))))

(assert (=> d!6785 (= lt!6362 (array!881 (store (arr!381 (_2!296 lt!6314)) lt!6319 (ite (= lt!6312 #b00000000000000000000000000000000) (ite (not (= lt!6360 #b00000000000000000000000000000000)) (bvsub #b00000001000000000000000000000000 lt!6360) #b00000000000000000000000000000000) (bvsub #b00000000111111111111111111111111 lt!6360))) (size!381 (_2!296 lt!6314))))))

(assert (=> d!6785 (= lt!6360 (select (arr!381 (_2!296 lt!6314)) lt!6319))))

(assert (=> d!6785 e!6987))

(declare-fun res!10158 () Bool)

(assert (=> d!6785 (=> (not res!10158) (not e!6987))))

(assert (=> d!6785 (= res!10158 (and (bvsle #b00000000000000000000000000000000 lt!6319) (bvsle lt!6319 (bvsub jz!59 #b00000000000000000000000000000001))))))

(declare-fun lt!6355 () tuple4!244)

(assert (=> d!6785 (= lt!6355 e!6989)))

(declare-fun c!1519 () Bool)

(assert (=> d!6785 (= c!1519 (bvsgt jz!59 #b00000000000000000000000000000000))))

(assert (=> d!6785 (= lt!6354 (select (arr!382 q!93) jz!59))))

(assert (=> d!6785 (= lt!6357 (array!881 ((as const (Array (_ BitVec 32) (_ BitVec 32))) #b00000000000000000000000000000000) #b00000000000000000000000000010100))))

(assert (=> d!6785 (= (computeModuloWhile!3 jz!59 q!93 lt!6319 (_2!296 lt!6314) lt!6312) lt!6361)))

(declare-fun b!12773 () Bool)

(assert (=> b!12773 (= e!6989 (computeModuloWhile!0 jz!59 q!93 lt!6357 jz!59 lt!6354))))

(declare-fun b!12777 () Bool)

(declare-fun Unit!1370 () Unit!1362)

(assert (=> b!12777 (= e!6988 (tuple4!247 Unit!1370 lt!6356 lt!6362 lt!6358))))

(declare-fun b!12778 () Bool)

(assert (=> b!12778 (= e!6990 (bvsge (_2!297 lt!6361) (bvsub jz!59 #b00000000000000000000000000000001)))))

(assert (=> b!12778 (or (= (bvand jz!59 #b10000000000000000000000000000000) #b00000000000000000000000000000000) (= (bvand jz!59 #b10000000000000000000000000000000) (bvand (bvsub jz!59 #b00000000000000000000000000000001) #b10000000000000000000000000000000)))))

(assert (= (and d!6785 c!1519) b!12773))

(assert (= (and d!6785 (not c!1519)) b!12776))

(assert (= (and d!6785 res!10158) b!12775))

(assert (= (and b!12775 res!10156) b!12771))

(assert (= (and d!6785 c!1520) b!12769))

(assert (= (and d!6785 (not c!1520)) b!12777))

(assert (= (and d!6785 res!10157) b!12770))

(assert (= (and b!12770 res!10154) b!12774))

(assert (= (and b!12774 res!10153) b!12772))

(assert (= (and b!12772 res!10155) b!12778))

(assert (=> b!12771 m!20807))

(declare-fun m!20835 () Bool)

(assert (=> b!12774 m!20835))

(declare-fun m!20837 () Bool)

(assert (=> b!12775 m!20837))

(declare-fun m!20839 () Bool)

(assert (=> b!12773 m!20839))

(declare-fun m!20841 () Bool)

(assert (=> b!12770 m!20841))

(declare-fun m!20843 () Bool)

(assert (=> b!12769 m!20843))

(declare-fun m!20845 () Bool)

(assert (=> d!6785 m!20845))

(declare-fun m!20847 () Bool)

(assert (=> d!6785 m!20847))

(assert (=> d!6785 m!20803))

(assert (=> b!12724 d!6785))

(declare-fun d!6787 () Bool)

(assert (=> d!6787 (= (array_inv!330 q!93) (bvsge (size!382 q!93) #b00000000000000000000000000000000))))

(assert (=> start!2445 d!6787))

(declare-fun d!6789 () Bool)

(assert (=> d!6789 (= (array_inv!331 iq!194) (bvsge (size!381 iq!194) #b00000000000000000000000000000000))))

(assert (=> start!2445 d!6789))

(declare-fun d!6791 () Bool)

(declare-fun res!10161 () Bool)

(declare-fun e!6993 () Bool)

(assert (=> d!6791 (=> (not res!10161) (not e!6993))))

(assert (=> d!6791 (= res!10161 (= (size!381 iq!194) #b00000000000000000000000000010100))))

(assert (=> d!6791 (= (iqInv!0 iq!194) e!6993)))

(declare-fun b!12781 () Bool)

(declare-fun lambda!602 () Int)

(declare-fun all20Int!0 (array!880 Int) Bool)

(assert (=> b!12781 (= e!6993 (all20Int!0 iq!194 lambda!602))))

(assert (= (and d!6791 res!10161) b!12781))

(declare-fun m!20849 () Bool)

(assert (=> b!12781 m!20849))

(assert (=> b!12720 d!6791))

(push 1)

(assert (not b!12781))

(assert (not b!12748))

(assert (not b!12743))

(assert (not b!12769))

(assert (not b!12741))

(assert (not b!12740))

(assert (not b!12770))

(assert (not b!12775))

(assert (not b!12773))

(check-sat)

(pop 1)

(push 1)

(check-sat)

(pop 1)

